p cnf 21 11
a 1 0
e 2 3 0
a 4 0
e 5 6 0
a 7 8 0
e 9 10 11 0
a 12 13 14 15 0
e 16 0
a 17 0
e 18 19 20 0
a 21 0
4 18 16 -21 12 0
14 6 12 4 0
9 -13 0
16 17 -2 8 18 0
-5 21 0
4 9 -12 -6 -21 0
2 -20 11 -4 16 0
-21 -18 -12 7 -17 0
12 7 19 0
21 -6 -1 -3 -17 0
-3 -16 7 -14 0
